import OpticSensor.dzn;

interface ITuringSort{
	
	in void init_Machine();
	
	behaviour{
		on init_Machine: {
			
		}
	}
}

component TuringSort{
	provides ITuringSort sensorInterface;
	
	requires IOpticSensor oSensor;
	
	behaviour{
		on sensorInterface.init_Machine():{
			
		}
	}
	
}

component TuringSorter{
	provides ITuringSort robotInterface;
	
	system{
		TuringSort ts;
		OpticSensor os;
		
		robotInterface <=> ts.sensorInterface;
		ts.oSensor <=> os.iod;
	}
}